p cnf 162 615
1 2 3 4 0
-1 -2 0
-1 -3 0
-1 -4 0
-2 -3 0
-2 -4 0
-3 -4 0
5 6 7 0
-5 -6 0
-5 -7 0
-6 -7 0
8 9 10 0
-8 -9 0
-8 -10 0
-9 -10 0
11 12 13 14 0
-11 -12 0
-11 -13 0
-11 -14 0
-12 -13 0
-12 -14 0
-13 -14 0
15 16 17 18 0
-15 -16 0
-15 -17 0
-15 -18 0
-16 -17 0
-16 -18 0
-17 -18 0
19 20 21 0
-19 -20 0
-19 -21 0
-20 -21 0
22 23 24 0
-22 -23 0
-22 -24 0
-23 -24 0
25 26 27 0
-25 -26 0
-25 -27 0
-26 -27 0
28 29 30 31 0
-28 -29 0
-28 -30 0
-28 -31 0
-29 -30 0
-29 -31 0
-30 -31 0
32 33 34 0
-32 -33 0
-32 -34 0
-33 -34 0
35 36 37 0
-35 -36 0
-35 -37 0
-36 -37 0
38 39 40 41 0
-38 -39 0
-38 -40 0
-38 -41 0
-39 -40 0
-39 -41 0
-40 -41 0
42 43 44 0
-42 -43 0
-42 -44 0
-43 -44 0
45 46 47 48 0
-45 -46 0
-45 -47 0
-45 -48 0
-46 -47 0
-46 -48 0
-47 -48 0
49 50 51 52 0
-49 -50 0
-49 -51 0
-49 -52 0
-50 -51 0
-50 -52 0
-51 -52 0
53 54 55 56 0
-53 -54 0
-53 -55 0
-53 -56 0
-54 -55 0
-54 -56 0
-55 -56 0
57 58 0
-57 -58 0
59 60 61 62 0
-59 -60 0
-59 -61 0
-59 -62 0
-60 -61 0
-60 -62 0
-61 -62 0
63 64 65 66 0
-63 -64 0
-63 -65 0
-63 -66 0
-64 -65 0
-64 -66 0
-65 -66 0
67 68 69 0
-67 -68 0
-67 -69 0
-68 -69 0
70 71 72 73 0
-70 -71 0
-70 -72 0
-70 -73 0
-71 -72 0
-71 -73 0
-72 -73 0
74 75 76 0
-74 -75 0
-74 -76 0
-75 -76 0
77 78 79 80 0
-77 -78 0
-77 -79 0
-77 -80 0
-78 -79 0
-78 -80 0
-79 -80 0
81 82 83 84 0
-81 -82 0
-81 -83 0
-81 -84 0
-82 -83 0
-82 -84 0
-83 -84 0
85 86 0
-85 -86 0
87 88 89 0
-87 -88 0
-87 -89 0
-88 -89 0
90 91 0
-90 -91 0
92 93 0
-92 -93 0
94 95 96 97 0
-94 -95 0
-94 -96 0
-94 -97 0
-95 -96 0
-95 -97 0
-96 -97 0
98 99 100 0
-98 -99 0
-98 -100 0
-99 -100 0
101 102 103 104 0
-101 -102 0
-101 -103 0
-101 -104 0
-102 -103 0
-102 -104 0
-103 -104 0
105 106 107 108 0
-105 -106 0
-105 -107 0
-105 -108 0
-106 -107 0
-106 -108 0
-107 -108 0
109 110 111 112 0
-109 -110 0
-109 -111 0
-109 -112 0
-110 -111 0
-110 -112 0
-111 -112 0
113 114 115 116 0
-113 -114 0
-113 -115 0
-113 -116 0
-114 -115 0
-114 -116 0
-115 -116 0
117 118 119 120 0
-117 -118 0
-117 -119 0
-117 -120 0
-118 -119 0
-118 -120 0
-119 -120 0
121 122 123 0
-121 -122 0
-121 -123 0
-122 -123 0
124 125 126 127 0
-124 -125 0
-124 -126 0
-124 -127 0
-125 -126 0
-125 -127 0
-126 -127 0
128 129 130 131 0
-128 -129 0
-128 -130 0
-128 -131 0
-129 -130 0
-129 -131 0
-130 -131 0
132 133 134 135 0
-132 -133 0
-132 -134 0
-132 -135 0
-133 -134 0
-133 -135 0
-134 -135 0
136 137 138 0
-136 -137 0
-136 -138 0
-137 -138 0
139 140 141 0
-139 -140 0
-139 -141 0
-140 -141 0
142 143 144 145 0
-142 -143 0
-142 -144 0
-142 -145 0
-143 -144 0
-143 -145 0
-144 -145 0
146 147 148 149 0
-146 -147 0
-146 -148 0
-146 -149 0
-147 -148 0
-147 -149 0
-148 -149 0
150 151 152 0
-150 -151 0
-150 -152 0
-151 -152 0
153 154 155 156 0
-153 -154 0
-153 -155 0
-153 -156 0
-154 -155 0
-154 -156 0
-155 -156 0
157 158 159 0
-157 -158 0
-157 -159 0
-158 -159 0
160 161 162 0
-160 -161 0
-160 -162 0
-161 -162 0
-1 -11 0
-2 -12 0
-3 -13 0
-4 -14 0
-1 -28 0
-2 -29 0
-3 -30 0
-4 -31 0
-1 -32 0
-2 -33 0
-4 -34 0
-1 -109 0
-2 -110 0
-3 -111 0
-4 -112 0
-5 -32 0
-6 -33 0
-7 -34 0
-5 -42 0
-6 -43 0
-5 -45 0
-6 -46 0
-7 -48 0
-5 -74 0
-6 -75 0
-7 -76 0
-5 -77 0
-6 -78 0
-7 -80 0
-5 -85 0
-5 -87 0
-6 -88 0
-5 -92 0
-5 -98 0
-7 -100 0
-5 -101 0
-6 -102 0
-7 -104 0
-5 -113 0
-6 -114 0
-7 -116 0
-8 -19 0
-9 -20 0
-10 -21 0
-8 -45 0
-9 -47 0
-10 -48 0
-8 -101 0
-9 -103 0
-10 -104 0
-8 -121 0
-9 -122 0
-10 -123 0
-11 -22 0
-12 -23 0
-13 -24 0
-11 -32 0
-12 -33 0
-14 -34 0
-11 -87 0
-12 -88 0
-13 -89 0
-11 -92 0
-13 -93 0
-11 -117 0
-12 -118 0
-13 -119 0
-14 -120 0
-11 -136 0
-12 -137 0
-14 -138 0
-15 -19 0
-17 -20 0
-18 -21 0
-15 -28 0
-16 -29 0
-17 -30 0
-18 -31 0
-15 -92 0
-17 -93 0
-15 -105 0
-16 -106 0
-17 -107 0
-18 -108 0
-15 -132 0
-16 -133 0
-17 -134 0
-18 -135 0
-19 -92 0
-20 -93 0
-19 -142 0
-20 -144 0
-21 -145 0
-22 -25 0
-23 -26 0
-22 -45 0
-23 -46 0
-24 -47 0
-22 -85 0
-24 -86 0
-22 -94 0
-23 -95 0
-24 -96 0
-25 -32 0
-26 -33 0
-27 -34 0
-25 -45 0
-26 -46 0
-27 -48 0
-25 -150 0
-26 -151 0
-28 -59 0
-29 -60 0
-30 -61 0
-31 -62 0
-28 -74 0
-29 -75 0
-31 -76 0
-28 -109 0
-29 -110 0
-30 -111 0
-31 -112 0
-28 -117 0
-29 -118 0
-30 -119 0
-31 -120 0
-28 -142 0
-29 -143 0
-30 -144 0
-31 -145 0
-32 -35 0
-33 -36 0
-32 -98 0
-34 -100 0
-35 -63 0
-36 -64 0
-37 -65 0
-35 -87 0
-36 -88 0
-37 -89 0
-35 -101 0
-36 -102 0
-37 -103 0
-38 -57 0
-39 -58 0
-38 -70 0
-39 -71 0
-40 -72 0
-41 -73 0
-42 -85 0
-44 -86 0
-42 -101 0
-43 -102 0
-44 -103 0
-42 -113 0
-43 -114 0
-44 -115 0
-42 -153 0
-43 -154 0
-44 -155 0
-45 -85 0
-47 -86 0
-45 -87 0
-46 -88 0
-47 -89 0
-45 -109 0
-46 -110 0
-47 -111 0
-48 -112 0
-45 -124 0
-46 -125 0
-47 -126 0
-48 -127 0
-49 -87 0
-50 -88 0
-51 -89 0
-49 -113 0
-50 -114 0
-51 -115 0
-52 -116 0
-53 -63 0
-54 -64 0
-55 -65 0
-56 -66 0
-53 -98 0
-55 -99 0
-56 -100 0
-57 -70 0
-58 -71 0
-57 -85 0
-57 -136 0
-58 -137 0
-57 -150 0
-58 -151 0
-59 -94 0
-60 -95 0
-61 -96 0
-62 -97 0
-59 -98 0
-61 -99 0
-62 -100 0
-59 -101 0
-60 -102 0
-61 -103 0
-62 -104 0
-63 -70 0
-64 -71 0
-65 -72 0
-66 -73 0
-63 -117 0
-64 -118 0
-65 -119 0
-66 -120 0
-63 -160 0
-65 -161 0
-66 -162 0
-67 -74 0
-68 -75 0
-69 -76 0
-67 -77 0
-68 -78 0
-69 -80 0
-67 -85 0
-67 -117 0
-68 -118 0
-69 -120 0
-67 -132 0
-68 -133 0
-69 -135 0
-67 -136 0
-68 -137 0
-69 -138 0
-74 -90 0
-74 -92 0
-74 -98 0
-76 -100 0
-74 -117 0
-75 -118 0
-76 -120 0
-74 -150 0
-75 -151 0
-77 -101 0
-78 -102 0
-79 -103 0
-80 -104 0
-77 -109 0
-78 -110 0
-79 -111 0
-80 -112 0
-77 -146 0
-78 -147 0
-79 -148 0
-80 -149 0
-81 -90 0
-83 -91 0
-81 -109 0
-82 -110 0
-83 -111 0
-84 -112 0
-81 -128 0
-82 -129 0
-83 -130 0
-84 -131 0
-81 -150 0
-82 -151 0
-83 -152 0
-85 -105 0
-86 -107 0
-85 -109 0
-86 -111 0
-85 -132 0
-86 -134 0
-85 -150 0
-86 -152 0
-85 -153 0
-86 -155 0
-87 -136 0
-88 -137 0
-90 -92 0
-91 -93 0
-90 -142 0
-91 -144 0
-92 -105 0
-93 -107 0
-92 -121 0
-93 -122 0
-92 -139 0
-93 -140 0
-94 -98 0
-96 -99 0
-97 -100 0
-94 -109 0
-95 -110 0
-96 -111 0
-97 -112 0
-94 -113 0
-95 -114 0
-96 -115 0
-97 -116 0
-98 -105 0
-99 -107 0
-100 -108 0
-101 -105 0
-102 -106 0
-103 -107 0
-104 -108 0
-101 -139 0
-103 -140 0
-104 -141 0
-105 -113 0
-106 -114 0
-107 -115 0
-108 -116 0
-105 -124 0
-106 -125 0
-107 -126 0
-108 -127 0
-105 -128 0
-106 -129 0
-107 -130 0
-108 -131 0
-109 -128 0
-110 -129 0
-111 -130 0
-112 -131 0
-109 -132 0
-110 -133 0
-111 -134 0
-112 -135 0
-109 -153 0
-110 -154 0
-111 -155 0
-112 -156 0
-121 -142 0
-122 -144 0
-123 -145 0
-121 -146 0
-122 -148 0
-123 -149 0
-124 -150 0
-125 -151 0
-126 -152 0
-132 -139 0
-134 -140 0
-135 -141 0
-132 -142 0
-133 -143 0
-134 -144 0
-135 -145 0
-136 -142 0
-137 -143 0
-138 -145 0
-139 -146 0
-140 -148 0
-141 -149 0
-139 -160 0
-140 -161 0
-141 -162 0
-150 -157 0
-152 -158 0
